NAME : rnd85_20.tsp
TYPE : TSP
DIMENSION : 20
EDGE_WEIGHT_TYPE : EUC_2D
NODE_COORD_SECTION
0 111 939
1 416 817
2 6 99
3 975 263
4 568 45
5 677 827
6 356 856
7 787 59
8 110 702
9 706 128
10 918 615
11 1000 676
12 759 612
13 462 421
14 258 1000
15 720 334
16 333 889
17 923 702
18 352 137
19 633 563
